param W_CLASS:=
1 0.009906699924619206
2 -0.03999916995065878
3 0
4 0
5 -11.23770106307586
6 -0.007637385552924675
7 -0.05609578130460552
8 -0.18069734403619508
9 0.02046040131667104
10 0
11 0
12 41.35219394113265
13 0.4529007442996287
14 -0.5520006210704441
15 0
16 0
17 -41.9741144804639
18 -7.501773452874851
19 6.783153377578665;

param B_CLASS:= -24.158278745990277 ;